p wcnf 17 68 409
409 1 2 0
409 1 5 0
409 1 6 0
409 1 7 0
409 1 16 0
409 1 17 0
409 2 4 0
409 2 8 0
409 2 9 0
409 2 11 0
409 2 13 0
409 2 16 0
409 3 4 0
409 3 6 0
409 3 10 0
409 3 15 0
409 3 16 0
409 3 17 0
409 4 6 0
409 4 9 0
409 4 12 0
409 4 14 0
409 5 6 0
409 5 9 0
409 5 10 0
409 5 13 0
409 5 15 0
409 5 16 0
409 5 17 0
409 6 7 0
409 6 9 0
409 6 12 0
409 7 13 0
409 7 16 0
409 8 10 0
409 8 12 0
409 8 14 0
409 8 15 0
409 8 16 0
409 9 17 0
409 10 11 0
409 10 12 0
409 10 14 0
409 10 16 0
409 10 17 0
409 11 13 0
409 11 14 0
409 12 13 0
409 12 16 0
409 14 17 0
409 15 16 0
12 -1 0
11 -2 0
12 -3 0
12 -4 0
10 -5 0
11 -6 0
14 -7 0
12 -8 0
13 -9 0
10 -10 0
14 -11 0
12 -12 0
13 -13 0
13 -14 0
14 -15 0
9 -16 0
12 -17 0
